Input: ticf-13crafa.prec25.dzn
============================================================
Total Runtime: 3.3157 seconds
Input parsing: 0.0037 seconds
Constraint building: 0.7162 seconds
MaxSAT solving: 2.0890 seconds
============================================================

Total variables: 182834
Total clauses: 383768
MaxSAT found with cost: 0
NO SOLUTION FOUND
